problems/random/rand10.opt.tour
NAME: rand10
TYPE: TOUR
DIMENSION: 10
TOUR_SECTION
1
8
3
6
5
10
4
2
7
9
-1
EOF
